problems/csplib-prob036/FixedLengthErrorCorrectingCodes-models/compact/O2/lingeling/model-biglee4-solution000001.eprime-solution
language ESSENCE' 1.0

letting c_ExplicitR9_Function1D be
        [[1, 2, 2, 1, 3, 2, 1, 2; int(1..8)], [1, 4, 1, 3, 3, 4, 1, 1; int(1..8)], [1, 4, 2, 1, 2, 2, 3, 3; int(1..8)],
         [1, 4, 4, 3, 3, 2, 3, 1; int(1..8)], [3, 3, 1, 1, 4, 2, 3, 4; int(1..8)], [4, 3, 1, 1, 2, 4, 4, 1; int(1..8)],
         [4, 3, 2, 1, 3, 1, 2, 3; int(1..8)], [4, 3, 2, 4, 2, 3, 3, 3; int(1..8)],
         [4, 3, 3, 1, 4, 4, 1, 1; int(1..8)]; int(1..9)]
